Minimize 
 obj1: x(1) 
Subject To 
 c1: y(0) + y(1) + y(2) + y(3) + y(4) + y(5) + y(6) + y(7) + y(8) + y(9) + 
     y(10) + y(11) + y(12) + y(13) + y(14) + y(15) + y(16) + y(17) + y(18) + y(19) + 
     y(20) + y(21) + y(22) + y(23) + y(24) + y(25) + y(26) + y(27) + y(28) + y(29) + 
     y(30) + y(31) + y(32) + y(33) + y(34) + y(35) + y(36) + y(37) + y(38) + y(39) + 
     y(40) + y(41) + y(42) + y(43) + y(44) + y(45) + y(46) + y(47) + y(48) + y(49) + 
     y(50) + y(51) + y(52) + y(53) + y(54) + y(55) + y(56) + y(57) + y(58) + y(59) + 
     y(60) + y(61) + y(62) + y(63) + y(64) + y(65) + y(66) + y(67) + y(68) + y(69) + 
     y(70) + y(71) + y(72) + y(73) + y(74) + y(75) + y(76) + y(77) + y(78) + y(79) + 
     y(80) + y(81) + y(82) + y(83) + y(84) + y(85) + y(86) + y(87) + y(88) + y(89) + 
     y(90) + y(91) + y(92) + y(93) + y(94) + y(95) + y(96) + y(97) + y(98) + y(99) + 
     y(100) = 1 
 c2: x(1) + x(2) - 400 y(0) >= - 400 
 c3: 1 x(1) + 0 x(2) - 400 y(1) >= -600.0 
 c4: 0 x(1) + 1 x(2) - 400 y(1) >= -200.0 
 c5: 1 x(1) + 0 x(2) - 400 y(2) >= -596.6721 
 c6: 0 x(1) + 1 x(2) - 400 y(2) >= -203.3279 
 c7: 1 x(1) + 0 x(2) - 400 y(3) >= -596.6721 
 c8: 0 x(1) + 1 x(2) - 400 y(3) >= -205.6171 
 c9: 1 x(1) + 0 x(2) - 400 y(4) >= -594.3829 
 c10: 0 x(1) + 1 x(2) - 400 y(4) >= -205.6171 
 c11: 1 x(1) + 0 x(2) - 400 y(5) >= -592.4195 
 c12: 0 x(1) + 1 x(2) - 400 y(5) >= -207.5804 
 c13: 1 x(1) + 0 x(2) - 400 y(6) >= -592.4195 
 c14: 0 x(1) + 1 x(2) - 400 y(6) >= -209.8696 
 c15: 1 x(1) + 0 x(2) - 400 y(7) >= -590.1304 
 c16: 0 x(1) + 1 x(2) - 400 y(7) >= -209.8696 
 c17: 1 x(1) + 0 x(2) - 400 y(8) >= -589.4396 
 c18: 0 x(1) + 1 x(2) - 400 y(8) >= -210.5604 
 c19: 1 x(1) + 0 x(2) - 400 y(9) >= -589.4396 
 c20: 0 x(1) + 1 x(2) - 400 y(9) >= -212.8496 
 c21: 1 x(1) + 0 x(2) - 400 y(10) >= -587.1504 
 c22: 0 x(1) + 1 x(2) - 400 y(10) >= -212.8496 
 c23: 1 x(1) + 0 x(2) - 400 y(11) >= -585.7519 
 c24: 0 x(1) + 1 x(2) - 400 y(11) >= -214.2481 
 c25: 1 x(1) + 0 x(2) - 400 y(12) >= -585.7519 
 c26: 0 x(1) + 1 x(2) - 400 y(12) >= -216.5373 
 c27: 1 x(1) + 0 x(2) - 400 y(13) >= -583.4627 
 c28: 0 x(1) + 1 x(2) - 400 y(13) >= -216.5373 
 c29: 1 x(1) + 0 x(2) - 400 y(14) >= -581.8482 
 c30: 0 x(1) + 1 x(2) - 400 y(14) >= -218.1518 
 c31: 1 x(1) + 0 x(2) - 400 y(15) >= -581.8482 
 c32: 0 x(1) + 1 x(2) - 400 y(15) >= -220.441 
 c33: 1 x(1) + 0 x(2) - 400 y(16) >= -579.559 
 c34: 0 x(1) + 1 x(2) - 400 y(16) >= -220.441 
 c35: 1 x(1) + 0 x(2) - 400 y(17) >= -576.43 
 c36: 0 x(1) + 1 x(2) - 400 y(17) >= -223.57 
 c37: 1 x(1) + 0 x(2) - 400 y(18) >= -576.43 
 c38: 0 x(1) + 1 x(2) - 400 y(18) >= -225.8592 
 c39: 1 x(1) + 0 x(2) - 400 y(19) >= -574.1408 
 c40: 0 x(1) + 1 x(2) - 400 y(19) >= -225.8592 
 c41: 1 x(1) + 0 x(2) - 400 y(20) >= -572.7218 
 c42: 0 x(1) + 1 x(2) - 400 y(20) >= -227.2782 
 c43: 1 x(1) + 0 x(2) - 400 y(21) >= -572.7218 
 c44: 0 x(1) + 1 x(2) - 400 y(21) >= -229.5674 
 c45: 1 x(1) + 0 x(2) - 400 y(22) >= -570.4326 
 c46: 0 x(1) + 1 x(2) - 400 y(22) >= -229.5674 
 c47: 1 x(1) + 0 x(2) - 400 y(23) >= -570.2827 
 c48: 0 x(1) + 1 x(2) - 400 y(23) >= -229.7173 
 c49: 1 x(1) + 0 x(2) - 400 y(24) >= -570.2827 
 c50: 0 x(1) + 1 x(2) - 400 y(24) >= -232.0065 
 c51: 1 x(1) + 0 x(2) - 400 y(25) >= -567.9935 
 c52: 0 x(1) + 1 x(2) - 400 y(25) >= -232.0065 
 c53: 1 x(1) + 0 x(2) - 400 y(26) >= -565.444 
 c54: 0 x(1) + 1 x(2) - 400 y(26) >= -234.556 
 c55: 1 x(1) + 0 x(2) - 400 y(27) >= -565.444 
 c56: 0 x(1) + 1 x(2) - 400 y(27) >= -236.8452 
 c57: 1 x(1) + 0 x(2) - 400 y(28) >= -563.1548 
 c58: 0 x(1) + 1 x(2) - 400 y(28) >= -236.8452 
 c59: 1 x(1) + 0 x(2) - 400 y(29) >= -560.8312 
 c60: 0 x(1) + 1 x(2) - 400 y(29) >= -239.1688 
 c61: 1 x(1) + 0 x(2) - 400 y(30) >= -560.8312 
 c62: 0 x(1) + 1 x(2) - 400 y(30) >= -241.458 
 c63: 1 x(1) + 0 x(2) - 400 y(31) >= -558.542 
 c64: 0 x(1) + 1 x(2) - 400 y(31) >= -241.458 
 c65: 1 x(1) + 0 x(2) - 400 y(32) >= -556.4138 
 c66: 0 x(1) + 1 x(2) - 400 y(32) >= -243.5862 
 c67: 1 x(1) + 0 x(2) - 400 y(33) >= -556.4138 
 c68: 0 x(1) + 1 x(2) - 400 y(33) >= -245.8754 
 c69: 1 x(1) + 0 x(2) - 400 y(34) >= -554.1246 
 c70: 0 x(1) + 1 x(2) - 400 y(34) >= -245.8754 
 c71: 1 x(1) + 0 x(2) - 400 y(35) >= -552.4182 
 c72: 0 x(1) + 1 x(2) - 400 y(35) >= -247.5818 
 c73: 1 x(1) + 0 x(2) - 400 y(36) >= -552.4182 
 c74: 0 x(1) + 1 x(2) - 400 y(36) >= -249.871 
 c75: 1 x(1) + 0 x(2) - 400 y(37) >= -550.129 
 c76: 0 x(1) + 1 x(2) - 400 y(37) >= -249.871 
 c77: 1 x(1) + 0 x(2) - 400 y(38) >= -548.3195 
 c78: 0 x(1) + 1 x(2) - 400 y(38) >= -251.6805 
 c79: 1 x(1) + 0 x(2) - 400 y(39) >= -548.3195 
 c80: 0 x(1) + 1 x(2) - 400 y(39) >= -253.9697 
 c81: 1 x(1) + 0 x(2) - 400 y(40) >= -546.0303 
 c82: 0 x(1) + 1 x(2) - 400 y(40) >= -253.9697 
 c83: 1 x(1) + 0 x(2) - 400 y(41) >= -545.467 
 c84: 0 x(1) + 1 x(2) - 400 y(41) >= -254.533 
 c85: 1 x(1) + 0 x(2) - 400 y(42) >= -545.467 
 c86: 0 x(1) + 1 x(2) - 400 y(42) >= -256.8222 
 c87: 1 x(1) + 0 x(2) - 400 y(43) >= -543.1777 
 c88: 0 x(1) + 1 x(2) - 400 y(43) >= -256.8222 
 c89: 1 x(1) + 0 x(2) - 400 y(44) >= -540.4475 
 c90: 0 x(1) + 1 x(2) - 400 y(44) >= -259.5525 
 c91: 1 x(1) + 0 x(2) - 400 y(45) >= -540.4475 
 c92: 0 x(1) + 1 x(2) - 400 y(45) >= -261.8417 
 c93: 1 x(1) + 0 x(2) - 400 y(46) >= -538.1583 
 c94: 0 x(1) + 1 x(2) - 400 y(46) >= -261.8417 
 c95: 1 x(1) + 0 x(2) - 400 y(47) >= -537.63 
 c96: 0 x(1) + 1 x(2) - 400 y(47) >= -262.37 
 c97: 1 x(1) + 0 x(2) - 400 y(48) >= -537.63 
 c98: 0 x(1) + 1 x(2) - 400 y(48) >= -264.6592 
 c99: 1 x(1) + 0 x(2) - 400 y(49) >= -535.3407 
 c100: 0 x(1) + 1 x(2) - 400 y(49) >= -264.6592 
 c101: 1 x(1) + 0 x(2) - 400 y(50) >= -535.0034 
 c102: 0 x(1) + 1 x(2) - 400 y(50) >= -264.9966 
 c103: 1 x(1) + 0 x(2) - 400 y(51) >= -535.0034 
 c104: 0 x(1) + 1 x(2) - 400 y(51) >= -267.2858 
 c105: 1 x(1) + 0 x(2) - 400 y(52) >= -532.7142 
 c106: 0 x(1) + 1 x(2) - 400 y(52) >= -267.2858 
 c107: 1 x(1) + 0 x(2) - 400 y(53) >= -528.428 
 c108: 0 x(1) + 1 x(2) - 400 y(53) >= -271.572 
 c109: 1 x(1) + 0 x(2) - 400 y(54) >= -528.428 
 c110: 0 x(1) + 1 x(2) - 400 y(54) >= -273.8612 
 c111: 1 x(1) + 0 x(2) - 400 y(55) >= -526.1387 
 c112: 0 x(1) + 1 x(2) - 400 y(55) >= -273.8612 
 c113: 1 x(1) + 0 x(2) - 400 y(56) >= -524.4563 
 c114: 0 x(1) + 1 x(2) - 400 y(56) >= -275.5437 
 c115: 1 x(1) + 0 x(2) - 400 y(57) >= -524.4563 
 c116: 0 x(1) + 1 x(2) - 400 y(57) >= -277.8329 
 c117: 1 x(1) + 0 x(2) - 400 y(58) >= -522.1671 
 c118: 0 x(1) + 1 x(2) - 400 y(58) >= -277.8329 
 c119: 1 x(1) + 0 x(2) - 400 y(59) >= -521.1727 
 c120: 0 x(1) + 1 x(2) - 400 y(59) >= -278.8273 
 c121: 1 x(1) + 0 x(2) - 400 y(60) >= -521.1727 
 c122: 0 x(1) + 1 x(2) - 400 y(60) >= -281.1164 
 c123: 1 x(1) + 0 x(2) - 400 y(61) >= -518.8835 
 c124: 0 x(1) + 1 x(2) - 400 y(61) >= -281.1164 
 c125: 1 x(1) + 0 x(2) - 400 y(62) >= -517.3208 
 c126: 0 x(1) + 1 x(2) - 400 y(62) >= -282.6791 
 c127: 1 x(1) + 0 x(2) - 400 y(63) >= -517.3208 
 c128: 0 x(1) + 1 x(2) - 400 y(63) >= -284.9683 
 c129: 1 x(1) + 0 x(2) - 400 y(64) >= -515.0317 
 c130: 0 x(1) + 1 x(2) - 400 y(64) >= -284.9683 
 c131: 1 x(1) + 0 x(2) - 400 y(65) >= -513.9315 
 c132: 0 x(1) + 1 x(2) - 400 y(65) >= -286.0684 
 c133: 1 x(1) + 0 x(2) - 400 y(66) >= -513.9315 
 c134: 0 x(1) + 1 x(2) - 400 y(66) >= -288.3577 
 c135: 1 x(1) + 0 x(2) - 400 y(67) >= -511.6423 
 c136: 0 x(1) + 1 x(2) - 400 y(67) >= -288.3577 
 c137: 1 x(1) + 0 x(2) - 400 y(68) >= -510.4077 
 c138: 0 x(1) + 1 x(2) - 400 y(68) >= -289.5923 
 c139: 1 x(1) + 0 x(2) - 400 y(69) >= -510.4077 
 c140: 0 x(1) + 1 x(2) - 400 y(69) >= -291.8815 
 c141: 1 x(1) + 0 x(2) - 400 y(70) >= -508.1185 
 c142: 0 x(1) + 1 x(2) - 400 y(70) >= -291.8815 
 c143: 1 x(1) + 0 x(2) - 400 y(71) >= -507.4605 
 c144: 0 x(1) + 1 x(2) - 400 y(71) >= -292.5394 
 c145: 1 x(1) + 0 x(2) - 400 y(72) >= -507.4605 
 c146: 0 x(1) + 1 x(2) - 400 y(72) >= -294.8287 
 c147: 1 x(1) + 0 x(2) - 400 y(73) >= -505.1713 
 c148: 0 x(1) + 1 x(2) - 400 y(73) >= -294.8287 
 c149: 1 x(1) + 0 x(2) - 400 y(74) >= -501.4378 
 c150: 0 x(1) + 1 x(2) - 400 y(74) >= -298.5622 
 c151: 1 x(1) + 0 x(2) - 400 y(75) >= -501.4378 
 c152: 0 x(1) + 1 x(2) - 400 y(75) >= -300.8514 
 c153: 1 x(1) + 0 x(2) - 400 y(76) >= -499.1486 
 c154: 0 x(1) + 1 x(2) - 400 y(76) >= -300.8514 
 c155: 1 x(1) + 0 x(2) - 400 y(77) >= -497.8584 
 c156: 0 x(1) + 1 x(2) - 400 y(77) >= -302.1416 
 c157: 1 x(1) + 0 x(2) - 400 y(78) >= -497.8584 
 c158: 0 x(1) + 1 x(2) - 400 y(78) >= -304.4307 
 c159: 1 x(1) + 0 x(2) - 400 y(79) >= -495.5692 
 c160: 0 x(1) + 1 x(2) - 400 y(79) >= -304.4307 
 c161: 1 x(1) + 0 x(2) - 400 y(80) >= -494.9935 
 c162: 0 x(1) + 1 x(2) - 400 y(80) >= -305.0065 
 c163: 1 x(1) + 0 x(2) - 400 y(81) >= -494.9935 
 c164: 0 x(1) + 1 x(2) - 400 y(81) >= -307.2957 
 c165: 1 x(1) + 0 x(2) - 400 y(82) >= -492.7043 
 c166: 0 x(1) + 1 x(2) - 400 y(82) >= -307.2957 
 c167: 1 x(1) + 0 x(2) - 400 y(83) >= -490.1885 
 c168: 0 x(1) + 1 x(2) - 400 y(83) >= -309.8115 
 c169: 1 x(1) + 0 x(2) - 400 y(84) >= -490.1885 
 c170: 0 x(1) + 1 x(2) - 400 y(84) >= -312.1007 
 c171: 1 x(1) + 0 x(2) - 400 y(85) >= -487.8993 
 c172: 0 x(1) + 1 x(2) - 400 y(85) >= -312.1007 
 c173: 1 x(1) + 0 x(2) - 400 y(86) >= -486.9892 
 c174: 0 x(1) + 1 x(2) - 400 y(86) >= -313.0108 
 c175: 1 x(1) + 0 x(2) - 400 y(87) >= -486.9892 
 c176: 0 x(1) + 1 x(2) - 400 y(87) >= -315.3 
 c177: 1 x(1) + 0 x(2) - 400 y(88) >= -484.7 
 c178: 0 x(1) + 1 x(2) - 400 y(88) >= -315.3 
 c179: 1 x(1) + 0 x(2) - 400 y(89) >= -482.4009 
 c180: 0 x(1) + 1 x(2) - 400 y(89) >= -317.5991 
 c181: 1 x(1) + 0 x(2) - 400 y(90) >= -482.4009 
 c182: 0 x(1) + 1 x(2) - 400 y(90) >= -319.8883 
 c183: 1 x(1) + 0 x(2) - 400 y(91) >= -480.1117 
 c184: 0 x(1) + 1 x(2) - 400 y(91) >= -319.8883 
 c185: 1 x(1) + 0 x(2) - 400 y(92) >= -479.487 
 c186: 0 x(1) + 1 x(2) - 400 y(92) >= -320.513 
 c187: 1 x(1) + 0 x(2) - 400 y(93) >= -479.487 
 c188: 0 x(1) + 1 x(2) - 400 y(93) >= -322.8021 
 c189: 1 x(1) + 0 x(2) - 400 y(94) >= -477.1978 
 c190: 0 x(1) + 1 x(2) - 400 y(94) >= -322.8021 
 c191: 1 x(1) + 0 x(2) - 400 y(95) >= -473.3191 
 c192: 0 x(1) + 1 x(2) - 400 y(95) >= -326.6809 
 c193: 1 x(1) + 0 x(2) - 400 y(96) >= -473.3191 
 c194: 0 x(1) + 1 x(2) - 400 y(96) >= -328.9701 
 c195: 1 x(1) + 0 x(2) - 400 y(97) >= -471.0299 
 c196: 0 x(1) + 1 x(2) - 400 y(97) >= -328.9701 
 c197: 1 x(1) + 0 x(2) - 400 y(98) >= -469.396 
 c198: 0 x(1) + 1 x(2) - 400 y(98) >= -330.604 
 c199: 1 x(1) + 0 x(2) - 400 y(99) >= -469.396 
 c200: 0 x(1) + 1 x(2) - 400 y(99) >= -332.8932 
 c201: 1 x(1) + 0 x(2) - 400 y(100) >= -467.1068 
 c202: 0 x(1) + 1 x(2) - 400 y(100) >= -332.8932 
 obj2: x(2) = 0 
Bounds 
 -200 <= x(1) <= 200 
 -200 <= x(2) <= 200 
Binaries 
 y(0)  y(1)  y(2)  y(3)  y(4)  y(5)  y(6)  y(7)  y(8)  y(9) 
 y(10)  y(11)  y(12)  y(13)  y(14)  y(15)  y(16)  y(17)  y(18)  y(19) 
 y(20)  y(21)  y(22)  y(23)  y(24)  y(25)  y(26)  y(27)  y(28)  y(29) 
 y(30)  y(31)  y(32)  y(33)  y(34)  y(35)  y(36)  y(37)  y(38)  y(39) 
 y(40)  y(41)  y(42)  y(43)  y(44)  y(45)  y(46)  y(47)  y(48)  y(49) 
 y(50)  y(51)  y(52)  y(53)  y(54)  y(55)  y(56)  y(57)  y(58)  y(59) 
 y(60)  y(61)  y(62)  y(63)  y(64)  y(65)  y(66)  y(67)  y(68)  y(69) 
 y(70)  y(71)  y(72)  y(73)  y(74)  y(75)  y(76)  y(77)  y(78)  y(79) 
 y(80)  y(81)  y(82)  y(83)  y(84)  y(85)  y(86)  y(87)  y(88)  y(89) 
 y(90)  y(91)  y(92)  y(93)  y(94)  y(95)  y(96)  y(97)  y(98)  y(99) 
 y(100) 
End